row=9;
column=9;

Board=[|4,0,1,8,0,0,0,0,3|0,6,9,1,3,0,8,0,5|0,0,0,4,6,9,0,1,0|9,0,0,0,0,2,0,0,0|0,2,3,7,0,4,5,8,0|8,5,0,3,9,6,0,0,1|1,4,0,9,0,0,0,3,2|0,0,0,0,0,1,9,5,8|0,0,8,0,0,3,0,6,0|];
OE=[|0,1,1,0,0,1,0,1,1|0,0,1,1,1,1,0,0,1|1,0,1,0,0,1,0,1,1|1,1,0,1,0,0,1,1,0|0,0,1,1,1,0,1,0,1|0,1,1,1,1,0,0,0,1|1,0,0,1,1,0,1,1,0|1,1,0,0,0,1,1,1,0|1,1,0,0,1,1,1,0,0|];
